Route 1: 12 14 11 15 9 10 13 16 17 47
Route 2: 7 45 5 8 6 2 46 4 3 1
Route 3: 24 19 23 22 20 49 18 48 21 25
Route 4: 33 27 30 32 29 26 28 31 34
Route 5: 39 36 38 41 40 37 35 43
Route 6: 42 44 50
Vehicles: 6
Distance: 758.37
